20
587 233 220
100 94 28
81 78 66
111 49 21
119 63 37
72 50 30
58 58 40
108 55 29
54 49 38
69 46 44
88 71 61
83 58 35
108 77 37
108 62 57
73 61 31
92 46 43
62 53 51
79 69 20
74 39 38
92 70 28
78 73 61
thpack7_55